%nproc=128
%mem=128GB
#P OPT Freq B3LYP/6-31G**

Frag_4

0 1
C                    -0.0664    1.0746    0.6676
C                    -0.0664    1.0746   -0.6676
C                    -0.0664   -0.3264   -1.2366
C                     0.2576   -1.2074    0.
C                    -0.0664   -0.3264    1.2366
H                    -0.1031    1.9628    1.2917
H                    -0.1031    1.9628   -1.2917
H                    -1.0505   -0.5675   -1.6654
H                     0.6604   -0.46     -2.047
H                     1.3252   -1.451     0.
H                    -0.2895   -2.1543    0.
H                    -1.0505   -0.5675    1.6654
H                     0.6604   -0.46      2.047

