%nproc=32
%mem=180GB
%chk=B3LYP6-31Gdp.Frag_1069.chk
#P OPT Freq B3LYP/6-31G(d,p)

Frag_1069

0 1
O                     1.40079   1.37333  -0.08943
C                     0.83095   0.1817   -0.54004
O                     1.77297  -0.81576  -0.28422
C                    -0.47753  -0.10753   0.21026
O                    -1.34357   0.96797  -0.07234
O                    -0.95086  -1.34211  -0.27797
H                     0.70056   2.03513  -0.13684
H                     0.58785   0.23644  -1.61973
H                     1.32744  -1.65205  -0.46495
H                    -0.26139  -0.16666   1.2873
H                    -2.02707   1.01812   0.60243
H                    -1.56012  -1.72869   0.35792

