%nproc=128
%mem=128GB
#P OPT Freq B3LYP/6-31G**

Frag_31

0 1
C                    -1.2157   -0.3621    0.
C                     0.        0.5738    0.
N                     1.3127   -0.0775    0.
H                    -2.1566    0.2002    0.
H                    -1.2135   -1.0091    0.8852
H                    -1.2135   -1.0091   -0.8852
H                    -0.0451    1.2329    0.8759
H                    -0.0451    1.2329   -0.8759
H                     1.3894   -0.6877   -0.8118
H                     1.3894   -0.6877    0.8118

