%nproc=32
%mem=180GB
%chk=B3LYP6-31Gdp.Frag_754.chk
#P OPT Freq B3LYP/6-31G(d,p)

Frag_754

0 1
C                     2.00461  -0.44766   0.02782
C                     0.7062    0.28775   0.12014
O                     0.90418   1.60978   0.44338
C                    -0.49653  -0.26005  -0.10289
C                    -1.82705   0.42426   0.00813
O                    -0.55417  -1.57245  -0.55774
H                     2.58406  -0.29789   0.94599
H                     2.6115   -0.06312  -0.80038
H                     1.83184  -1.51178  -0.12573
H                     0.06571   2.07995   0.4103
H                    -2.31995   0.50911  -0.96819
H                    -2.50298  -0.14958   0.65907
H                    -1.76654   1.42641   0.44361
H                    -1.24069  -2.03483  -0.0637

