%nproc=32
%mem=180GB
#P OPT Freq B3LYP/6-31G**

Frag_177

0 1
C                     0.7168   -0.2935   -0.1103
C                    -0.7344   -0.2696    0.0102
N                    -0.0155    0.9581   -0.3775
H                     1.2842   -0.2729    0.8464
H                     1.1121   -0.7481   -1.0428
H                    -1.2927   -0.7084   -0.8431
H                    -1.1353   -0.233     1.0473
H                     0.0648    1.5674    0.4696

