%nproc=32
%mem=180GB
%chk=B3LYP6-31Gdp.Frag_741.chk
#P OPT Freq B3LYP/6-31G(d,p)

Frag_741

0 1
C                    -0.86601   1.5937   -0.87881
C                    -0.26139   0.58365  -0.21607
C                    -1.02186  -0.71967  -0.01172
N                     0.98825   0.76077   0.34833
N                     1.6307   -0.52758   0.56533
H                    -1.9062    1.52873  -1.17144
H                    -0.34642   2.52801  -1.05527
H                    -1.09439  -0.99267   1.0529
H                    -0.56806  -1.57382  -0.53637
H                    -2.04023  -0.62989  -0.39196
H                     2.45838  -0.32444   1.12292
H                     1.95866  -1.0079   -0.29347
H                     1.06865  -1.22399   1.08154

