%nproc=32
%mem=180GB
%chk=B3LYP6-31Gdp.Frag_644.chk
#P OPT Freq B3LYP/6-31G(d,p)

Frag_644

0 1
N                     1.91414   0.36572   0.09174
N                     0.60864   0.72121   0.46676
C                    -0.33424   0.01758  -0.00563
N                    -1.67563   0.21024   0.35743
O                    -0.13107  -1.03225  -0.85706
H                     2.51697   0.59128   0.87461
H                     1.98891  -0.63147  -0.10935
H                    -1.74138   0.96441   1.0309
H                    -2.26342   0.4233   -0.44385
H                    -0.88294  -1.62981  -0.76556

