%nproc=32
%mem=180GB
%chk=B3LYP6-31Gdp.Frag_440.chk
#P OPT Freq B3LYP/6-31G(d,p)

Frag_440

0 1
C                    -1.31631  -1.03219  -0.16395
C                    -0.29561  -0.07719   0.4769
C                    -0.56641   1.38436   0.1006
C                     1.1208   -0.59876   0.18224
N                     2.00516   0.27969  -0.37377
O                     1.43729  -1.74342   0.44851
H                    -2.33048  -0.79488   0.17154
H                    -1.08362  -2.06349   0.10621
H                    -1.29578  -0.95101  -1.25686
H                    -0.39186  -0.17496   1.56624
H                    -1.58055   1.6684    0.39767
H                     0.12193   2.07406   0.60059
H                    -0.49469   1.54233  -0.98238
H                     1.74817   1.2034   -0.66883
H                     2.92205  -0.06635  -0.60463

