%nproc=128
%mem=128GB
#P OPT Freq B3LYP/6-31G**

Frag_73

0 1
C                    -1.5279    1.2498   -0.0002
C                    -0.6748    0.        0.0001
C                    -1.5279   -1.2498    0.0002
C                     0.6748    0.        0.0001
C                     1.5279   -1.2498   -0.0002
C                     1.5279    1.2498    0.0002
H                    -2.186     1.2638   -0.8794
H                    -2.1895    1.262     0.8764
H                    -0.9617    2.1808    0.0018
H                    -2.1869   -1.2634    0.8787
H                    -0.9617   -2.1808   -0.0009
H                    -2.1886   -1.2623   -0.8771
H                     2.1885   -1.262    -0.8775
H                     0.9617   -2.1808   -0.0017
H                     2.187    -1.2637    0.8782
H                     2.1864    1.264    -0.8787
H                     2.1892    1.2618    0.877
H                     0.9617    2.1808    0.0022

