%nproc=32
%mem=180GB
%chk=B3LYP6-31Gdp.Frag_1071.chk
#P OPT Freq B3LYP/6-31G(d,p)

Frag_1071

0 1
C                    -1.95788  -0.11157  -0.05191
C                    -0.49419  -0.43809  -0.08271
C                     0.49419   0.4381    0.08271
C                     1.95788   0.11159   0.05191
H                    -2.12786   0.95452   0.12603
H                    -2.44712  -0.3795   -0.99696
H                    -2.47625  -0.67335   0.73555
H                    -0.24201  -1.48486  -0.25624
H                     0.24201   1.48487   0.25623
H                     2.47625   0.67338  -0.73554
H                     2.44711   0.37951   0.99697
H                     2.12786  -0.9545   -0.12604

