%nproc=32
%mem=180GB
%chk=B3LYP6-31Gdp.Frag_808.chk
#P OPT Freq B3LYP/6-31G(d,p)

Frag_808

0 1
C                     1.06362  -0.26414  -0.30479
C                    -0.20518  -0.09706   0.06567
O                    -0.85686   1.09068   0.20481
O                    -1.03315  -1.12022   0.35994
H                     1.69367   0.58436  -0.53196
H                     1.47752  -1.25794  -0.38206
H                    -0.25124   1.80798  -0.00901
H                    -1.88849  -0.74365   0.5974

