%nproc=32
%mem=180GB
%chk=B3LYP6-31Gdp.Frag_458.chk
#P OPT Freq B3LYP/6-31G(d,p)

Frag_458

0 1
C                     1.97867   0.27628  -0.04459
C                     0.7112   -0.15437  -0.78432
C                    -0.60172   0.16556  -0.03609
C                    -0.71302  -0.57996   1.29905
N                    -1.70895  -0.11034  -0.95703
O                    -0.67084   1.54694   0.29551
H                     2.85925   0.1558   -0.68264
H                     1.90596   1.32645   0.25001
H                     2.14603  -0.31629   0.86019
H                     0.6564    0.35337  -1.75521
H                     0.7463   -1.2309   -0.99913
H                     0.08093  -0.28421   1.98961
H                    -0.65477  -1.66143   1.14287
H                    -1.67122  -0.34378   1.77182
H                    -1.60805  -1.03144  -1.37334
H                    -2.58672  -0.11194  -0.44367
H                    -0.86964   1.99996  -0.53304

