%nproc=32
%mem=180GB
%chk=B3LYP6-31Gdp.Frag_978.chk
#P OPT Freq B3LYP/6-31G(d,p)

Frag_978

0 1
C                    -1.05786  -0.92408  -1.18114
C                    -0.62066   0.11565  -0.14001
C                    -1.33907  -0.16537   1.19697
N                    -0.98378   1.44751  -0.66539
C                     0.9479    0.10678   0.07612
N                     1.44553  -0.98103   0.93395
N                     1.62633   0.05857  -1.22037
N                     1.29773   1.33532   0.78641
H                    -0.67393  -1.92302  -0.94743
H                    -2.1507   -1.00123  -1.20043
H                    -0.7263   -0.63675  -2.18171
H                    -1.21964  -1.19928   1.53729
H                    -2.41233   0.01551   1.07651
H                    -0.96446   0.50418   1.9771
H                    -1.94553   1.42588  -0.994
H                    -0.96607   2.11456   0.10139
H                     1.01225  -0.93439   1.85137
H                     1.20566  -1.88312   0.53448
H                     1.36432  -0.7756   -1.73785
H                     2.6222   -0.03247  -1.03268
H                     1.28574   2.09094   0.10789
H                     2.25255   1.24144   1.12143

