%nproc=32
%mem=180GB
%chk=B3LYP6-31Gdp.Frag_759.chk
#P OPT Freq B3LYP/6-31G(d,p)

Frag_759

0 1
C                     1.72478  -0.03322   0.4351
O                     0.73193  -0.73656  -0.29163
C                    -0.60989  -0.32458  -0.08649
C                    -0.87552   1.10795  -0.53547
O                    -0.97564  -0.4145    1.25777
O                    -1.3615   -1.23454  -0.84011
H                     1.4537    0.05061   1.49291
H                     2.64759  -0.61003   0.34164
H                     1.89634   0.97153   0.02673
H                    -1.9511    1.29091  -0.50997
H                    -0.51198   1.24455  -1.55606
H                    -0.38576   1.82568   0.12621
H                    -1.06187  -1.3567    1.44912
H                    -0.72098  -1.7811   -1.30974

