%nproc=32
%mem=180GB
%chk=B3LYP6-31Gdp.Frag_1099.chk
#P OPT Freq B3LYP/6-31G(d,p)

Frag_1099

0 1
N                    -1.73013  -0.25756   0.22593
C                    -0.41139   0.18611   0.18584
N                     0.48203  -0.41803  -0.48666
N                     1.78739   0.09525  -0.41511
H                    -2.41488   0.4862    0.24793
H                    -1.93099  -0.92713  -0.50687
H                    -0.2057    1.05013   0.82956
H                     2.41941  -0.67681  -0.5934
H                     2.00416   0.46184   0.51267

