%nproc=32
%mem=180GB
#P OPT=calcfc Freq B3LYP/6-31G**

Frag_414

0 1
C                    -0.9393   -0.6747   -1.4412
N                    -0.4212   -0.064    -0.211
C                    -1.3458    0.5685    0.7354
C                     1.       -0.0926    0.0551
N                     1.802    -0.6567   -0.7942
N                     1.5424    0.4941    1.2468
H                    -2.0428   -0.5812   -1.5178
H                    -0.6827   -1.7551   -1.4598
H                    -0.4888   -0.1762   -2.3254
H                    -2.3984    0.5073    0.388
H                    -1.0883    1.6423    0.8518
H                    -1.2828    0.0588    1.7199
H                     2.8338   -0.6971   -0.6366
H                     0.9412    0.9592    1.9605
H                     2.5705    0.4673    1.4283

