%nproc=128
%mem=128GB
#P OPT Freq B3LYP/6-31G**

Frag_112

0 1
C                     2.0827   -0.1054    0.0085
C                     0.7024   -0.7026    0.0089
C                    -0.4549   -0.0151   -0.002
C                    -1.7981   -0.6966    0.0012
N                    -0.5399    1.3841   -0.0953
H                     2.1138    0.8826    0.4867
H                     2.7853   -0.7422    0.557
H                     2.4907    0.0187   -1.0047
H                     0.6361   -1.7863   -0.0188
H                    -2.3741   -0.4296   -0.8928
H                    -2.3955   -0.3899    0.8713
H                    -1.6899   -1.7822    0.0357
H                    -1.3048    1.7857    0.4344
H                     0.3251    1.8727    0.0982

