%nproc=32
%mem=180GB
#P OPT Freq B3LYP/6-31G**

N

0 4
N 0.000000 0.000000 0.000000

