%nproc=32
%mem=180GB
#P OPT Freq B3LYP/6-31G**

O

0 3
O 0.000000 0.000000 0.000000

