%nproc=32
%mem=180GB
#P OPT Freq B3LYP/6-31G**

C

0 3
C 0.000000 0.000000 0.000000

