%nproc=32
%mem=180GB
#P OPT Freq B3LYP/6-31G**

H

0 2
H 0.000000 0.000000 0.000000

