%nproc=32
%mem=180GB
#P OPT=calcfc Freq B3LYP**

Frag_378

0 1
C                    -1.5094    0.9766   -0.1909
N                    -0.3373    0.1103   -0.0274
C                    -0.5098   -1.3321    0.1705
C                     0.981     0.6977   -0.0644
N                     2.159    -0.1005    0.0897
O                     1.1091    1.9406   -0.2356
H                    -1.5259    1.7401    0.6154
H                    -1.4632    1.4867   -1.1762
H                    -2.4583    0.4023   -0.1429
H                    -0.0093   -1.8866   -0.651
H                    -1.5814   -1.6221    0.1741
H                    -0.0721   -1.6325    1.1458
H                     2.1178   -1.1323    0.2342
H                     3.0997    0.3518    0.0586

