%nproc=32
%mem=180GB
%chk=CBS-4M.Frag_702.chk
#P CBS-4M

Frag_702

0 1
N                    -0.76364  -1.75031  -0.27023
C                    -0.74295  -0.53811   0.12351
N                    -1.91527   0.11881   0.46219
C                     0.4921    0.37807   0.14457
N                     1.69364  -0.43582   0.19257
N                     0.59952   1.22186  -1.04887
H                     0.18305  -2.01578  -0.54798
H                    -1.84909   0.81265   1.19206
H                    -2.71185  -0.49618   0.55497
H                     0.39008   1.07166   1.00043
H                     2.503     0.17162   0.12022
H                     1.75164  -0.94709   1.06669
H                    -0.23402   1.79782  -1.12696
H                     0.60398   0.61082  -1.86327

