%nproc=32
%mem=180GB
%chk=CBS-4M.Frag_777.chk
#P CBS-4M

Frag_777

0 1
C                    -1.21916  -0.3219   -0.13433
C                    -0.48242   1.03575  -0.21916
O                    -1.12964   2.04644  -0.45916
N                     0.8631    1.1045   -0.03002
N                     1.42789  -0.23028   0.244
H                    -2.27541  -0.13038  -0.31787
H                    -0.87083  -1.04647  -0.88435
H                    -1.12764  -0.79861   0.85219
H                     1.07472  -0.68082   1.09924
H                     2.42534  -0.06649   0.3681
H                     1.31395  -0.91175  -0.51874

