%nproc=32
%mem=180GB
#P OPT=calcfc Freq B3LYP**

Frag_90

0 1
C                    -2.0393   -0.0603    0.
C                    -0.6959   -0.7454    0.
C                     0.4837   -0.0927    0.
C                     0.5632    1.4184    0.
N                     1.712    -0.7351    0.0001
H                    -2.8474   -0.7973    0.
H                    -2.1944    0.5796    0.8808
H                    -2.1944    0.5796   -0.8808
H                    -0.6873   -1.8338    0.
H                     0.0666    1.8402   -0.8804
H                     0.0665    1.8402    0.8804
H                     1.5979    1.7742    0.0001
H                     1.7667   -1.7388   -0.0002
H                     2.571    -0.2176   -0.0003

