%nproc=32
%mem=180GB
%chk=CBS-4M.Frag_935.chk
#P CBS-4M

Frag_935

0 1
C                     0.84619  -0.23043  -1.61685
C                     0.65764  -0.05697  -0.30945
C                     1.77702   0.35318   0.61225
C                    -0.7309   -0.19182   0.33481
N                    -1.37066   1.12328   0.52238
N                    -1.67904  -1.01768  -0.38797
O                    -0.51772  -0.75737   1.61404
H                     1.8194   -0.07658  -2.07153
H                     0.04267  -0.52022  -2.2851
H                     2.70622   0.5076    0.05838
H                     1.53642   1.28256   1.14189
H                     1.94012  -0.40773   1.38034
H                    -1.1723    1.72211  -0.27513
H                    -0.94795   1.55966   1.33516
H                    -1.22184  -1.70871  -0.96929
H                    -2.31012  -0.45522  -0.94312
H                    -1.37505  -1.12576   1.8593

