%nproc=32
%mem=180GB
#P CBS-4M**

Frag_117

0 1
C                    -0.5111    1.0321   -0.8351
C                    -0.0796   -0.1111    0.1086
C                     1.4533   -0.1815    0.1758
N                    -0.6069    0.1349    1.4572
N                    -0.5921   -1.3969   -0.3856
O                    -0.5415   -1.6692   -1.6037
O                    -0.8542   -2.4131    0.505
H                    -0.1666    2.0134   -0.4438
H                    -0.0785    0.8929   -1.8491
H                    -1.6181    1.0578   -0.9255
H                     1.7686   -0.9921    0.8673
H                     1.8786   -0.3914   -0.8292
H                     1.874     0.7789    0.5443
H                    -0.2745    1.0661    1.8007
H                    -1.6516    0.1793    1.413

