%nproc=32
%mem=180GB
#P CBS-4M**

Frag_194

0 1
C                    -0.6431    1.4274    0.5114
C                    -0.6237    1.2885   -0.8145
C                    -0.5197   -0.1903   -1.0897
C                    -1.3557   -0.7175    0.0553
C                    -0.5516    0.0381    1.0899
C                     0.8662   -0.5586    0.8519
C                     1.9301    0.1443    0.0132
C                     0.8888   -0.7204   -0.6921
H                    -0.7899    2.3569    1.0508
H                    -0.752     2.0855   -1.5389
H                    -0.8634   -0.5001   -2.0987
H                    -1.3042   -1.8258    0.1722
H                    -2.4239   -0.3968    0.0061
H                    -0.9254   -0.0569    2.1308
H                     1.1277   -1.5211    1.3433
H                     1.8484    1.2432   -0.1033
H                     2.9297   -0.3335    0.0779
H                     1.1617   -1.763    -0.9657

