%nproc=32
%mem=180GB
#P OPT=calcfc Freq B3LYP**

Frag_343

0 1
C                     1.8784    0.6496    0.1421
C                     0.9547   -0.2974   -0.0687
O                     1.3742   -1.5977   -0.3614
N                    -0.4635   -0.0165   -0.0028
C                    -1.4029   -1.1152   -0.2475
C                    -0.9749    1.3269    0.2998
H                     2.9318    0.4073    0.0855
H                     1.6173    1.6726    0.3722
H                     2.3547   -1.8487   -0.4197
H                    -1.243    -1.5243   -1.2676
H                    -2.4594   -0.7833   -0.1709
H                    -1.2394   -1.9209    0.4992
H                    -0.6234    2.0455   -0.4703
H                    -0.6199    1.6478    1.3018
H                    -2.0846    1.3542    0.3082

