%nproc=32
%mem=180GB
%chk=CBS-4M.Frag_737.chk
#P CBS-4M

Frag_737

0 1
N                    -1.46662   0.34468   0.19528
C                    -0.16046   0.00908  -0.11633
N                     0.76478   0.05182   0.76079
O                     2.0191   -0.20387   0.15745
H                    -1.64031   0.39775   1.1908
H                    -2.16743  -0.19872  -0.28782
H                     0.03895  -0.22946  -1.16172
H                     2.61189  -0.17128   0.91445

