%nproc=32
%mem=180GB
%chk=CBS-4M.Frag_505.chk
#P CBS-4M

Frag_505

0 1
C                    -1.90946   0.12005  -0.01896
C                    -0.46464  -0.26619   0.1557
N                    -0.30669  -1.5702    0.70008
C                     0.56359   0.49584  -0.25157
C                     2.01911   0.20981  -0.03985
O                     0.41109   1.67094  -0.96493
H                    -2.04345   1.19277  -0.18791
H                    -2.47683  -0.12127   0.88952
H                    -2.38774  -0.42687  -0.8408
H                     0.66172  -1.83635   0.82051
H                    -0.7848   -1.67188   1.59083
H                     2.18827  -0.4661    0.80225
H                     2.54023   1.14932   0.17239
H                     2.49141  -0.22531  -0.92959
H                    -0.50173   1.74574  -1.25755

