%nproc=32
%mem=180GB
%chk=CBS-4M.Frag_435.chk
#P CBS-4M

Frag_435

0 1
C                    -1.58162  -0.15681   0.79032
C                    -0.72457  -0.38892  -0.44871
O                    -0.89148   0.65457  -1.41776
C                     0.77914  -0.59597  -0.17586
C                     1.44462   0.55525   0.58649
O                     1.43245  -0.8191   -1.41587
H                    -1.30464   0.77202   1.30251
H                    -2.63709  -0.08958   0.51308
H                    -1.46472  -0.97737   1.50578
H                    -1.07142  -1.28934  -0.9682
H                    -0.79425   1.49876  -0.96352
H                     0.89651  -1.5209    0.40339
H                     2.52033   0.37335   0.64481
H                     1.05648   0.65616   1.60504
H                     1.30203   1.50932   0.06496
H                     1.03833  -0.18136  -2.02657

