%nproc=32
%mem=180GB
%chk=CBS-4M.Frag_1130.chk
#P CBS-4M

Frag_1130

0 1
C                    -1.1084   -1.37962   0.21924
C                    -0.47149  -0.22394   0.05541
N                    -1.01622   0.99933  -0.34233
N                     0.99207  -0.21305   0.2202
C                     1.68725   0.75771  -0.31768
O                     1.48973  -1.16522   0.88331
H                    -2.18665  -1.43526   0.14128
H                    -0.53964  -2.27339   0.42427
H                    -0.77094   1.76945   0.26965
H                    -2.01977   0.94665  -0.45647
H                     2.75486   0.73172  -0.16221
H                     1.1892    1.48562  -0.93447

