%nproc=32
%mem=180GB
%chk=CBS-4M.Frag_522.chk
#P CBS-4M

Frag_522

0 1
C                    -0.67695  -1.02047  -0.47986
N                    -0.00024   0.26379  -0.36073
N                    -0.89128   1.37229  -0.27425
C                     0.93095   0.30749   0.75828
O                     2.01764  -0.55699   0.53551
H                    -1.22126  -1.06811  -1.42814
H                     0.06992  -1.81759  -0.45976
H                    -1.39544  -1.1941    0.3444
H                    -1.24544   1.55281  -1.20932
H                    -1.70431   1.12829   0.30091
H                     0.47973  -0.03482   1.70657
H                     1.22823   1.35695   0.87131
H                     2.40825  -0.28933  -0.30484

