%nproc=32
%mem=180GB
#P OPT=calcfc Freq B3LYP**

Frag_207

0 1
C                    -0.7343    1.1914   -0.1422
C                    -0.3951   -0.2555    0.089
N                    -1.4528   -1.1795    0.3717
C                     0.871    -0.7022    0.0373
N                     1.9871    0.1508   -0.2384
H                    -0.4167    1.4982   -1.1611
H                    -0.2284    1.8263    0.6157
H                    -1.8282    1.3598   -0.0573
H                    -2.4453   -0.8585    0.4176
H                    -1.2573   -2.1924    0.538
H                     1.0674   -1.7535    0.2106
H                     1.8859    1.174    -0.4166
H                     2.9467   -0.2588   -0.2645

