%nproc=32
%mem=180GB
%chk=CBS-4M.Frag_1051.chk
#P CBS-4M

Frag_1051

0 1
C                    -0.36497  -0.98077  -1.1662
C                    -0.44073  -0.11728   0.10973
C                    -1.56705   0.91899  -0.02069
C                    -0.71801  -1.00532   1.332
N                     0.8292    0.62428   0.36759
N                     1.90473  -0.27663   0.61903
N                     1.09376   1.56152  -0.67318
H                    -1.31002  -1.50927  -1.32486
H                    -0.18217  -0.36675  -2.05406
H                     0.42264  -1.73753  -1.09047
H                    -2.53164   0.40854  -0.10468
H                    -1.42592   1.55409  -0.8958
H                    -1.59248   1.56146   0.86457
H                    -1.69608  -1.48522   1.22652
H                     0.04388  -1.7771    1.44588
H                    -0.72706  -0.40003   2.2434
H                     2.33143  -0.58043  -0.26234
H                     2.61693   0.2412    1.12538
H                     1.58708   1.10669  -1.44838
H                     1.72637   2.25977  -0.29366

