%nproc=32
%mem=180GB
%chk=CBS-4M.Frag_712.chk
#P CBS-4M

Frag_712

0 1
C                    -1.62632   0.15427   0.03144
N                    -0.42173  -0.64766   0.22276
O                     0.60182   0.24197   0.70387
C                     1.73195   0.12818  -0.13769
H                    -2.45297  -0.52906  -0.1901
H                    -1.48593   0.81638  -0.82744
H                    -1.88795   0.7655    0.90663
H                    -0.5778   -1.26829   1.01624
H                     2.46647   0.84146   0.24844
H                     1.49224   0.37985  -1.17899
H                     2.16032  -0.88268  -0.11226

