%nproc=32
%mem=180GB
%chk=CBS-4M.Frag_1012.chk
#P CBS-4M

Frag_1012

0 1
C                     1.62531  -0.07094   0.61998
C                     0.52164   0.27363  -0.35209
N                     0.67448   0.68308  -1.55675
N                    -0.77583   0.15768   0.1408
N                    -1.83329   0.23758  -0.8071
N                    -0.96953  -0.80189   1.15712
H                     1.44405   0.37523   1.60007
H                     2.58146   0.2844    0.22931
H                     1.6845   -1.15176   0.77397
H                     1.6623    0.78239  -1.77628
H                    -1.391     0.13301  -1.72426
H                    -2.1752    1.19724  -0.79346
H                    -1.34284  -1.64994   0.72661
H                    -1.70615  -0.44961   1.76218

