%nproc=32
%mem=180GB
#P OPT=calcfc Freq B3LYP**

Frag_293

0 1
C                     1.238    -0.8141    1.5663
C                     0.8349   -0.3978    0.3497
C                     1.8708   -0.3922   -0.7521
C                    -0.5805    0.1593    0.106
C                    -0.4902    1.689    -0.0417
C                    -1.1907   -0.4522   -1.1771
N                    -1.4665   -0.148     1.2416
H                     2.2517   -1.1733    1.7204
H                     0.5869   -0.7974    2.4328
H                     2.7827    0.1439   -0.4121
H                     1.5128    0.1188   -1.6664
H                     2.1421   -1.4368   -1.0133
H                     0.161     1.973    -0.8956
H                    -1.4973    2.1248   -0.2177
H                    -0.0725    2.1396    0.8845
H                    -1.1426   -1.5617   -1.1365
H                    -2.2566   -0.1549   -1.2793
H                    -0.6673   -0.1079   -2.0924
H                    -2.4117    0.2719    1.0799
H                    -1.6049   -1.184     1.3031

