%nproc=32
%mem=180GB
%chk=CBS-4M.Frag_1107.chk
#P CBS-4M

Frag_1107

0 1
N                    -1.60333   0.20041   0.62458
C                    -0.33776   0.05838  -0.07918
N                    -0.25618  -1.19964  -0.83121
N                    -0.24337   1.20991  -0.98593
C                     0.78408   0.03646   0.98082
O                     2.0718   -0.10879   0.37834
H                    -2.32838   0.39914  -0.06263
H                    -1.837    -0.69102   1.05572
H                     0.66922  -1.25818  -1.2567
H                    -0.90798  -1.1332   -1.61238
H                     0.70445   1.24175  -1.3587
H                    -0.36789   2.06396  -0.44296
H                     0.5942   -0.76146   1.71055
H                     0.7733    0.99186   1.51322
H                     2.28493  -1.04967   0.36636

