%nproc=32
%mem=180GB
#P OPT=calcfc Freq B3LYP**

Frag_400

0 1
C                     2.1483    0.206     0.2914
C                     0.9203    0.0555   -0.5785
N                     1.0586    0.0082   -1.8595
C                    -0.4907   -0.0434    0.0129
C                    -0.4922    0.0284    1.5572
C                    -1.1225   -1.384    -0.4127
C                    -1.3467    1.119    -0.5293
H                     2.2401   -0.6661    0.971
H                     2.0784    1.1395    0.8869
H                     3.0761    0.2608   -0.3166
H                     1.9798    0.0694   -2.3174
H                    -1.5292   -0.0461    1.9507
H                    -0.0674    0.9919    1.9111
H                     0.0938   -0.8076    1.995
H                    -2.1467   -1.4879    0.0068
H                    -0.507    -2.2353   -0.049
H                    -1.1975   -1.4554   -1.5194
H                    -0.895     2.0958   -0.2507
H                    -1.424     1.0736   -1.6371
H                    -2.3766    1.0778   -0.1127

