%nproc=32
%mem=180GB
#P CBS-4M**

Frag_243

0 1
C                     2.0518    0.3261   -0.1258
C                     0.8925   -0.5644    0.331
C                    -0.4994   -0.1558   -0.2263
C                    -0.9263    1.243     0.2759
C                    -1.5373   -1.181     0.2592
O                    -0.4937   -0.1976   -1.635
H                     2.9985   -0.0586    0.3088
H                     2.1542    0.3105   -1.2304
H                     1.9177    1.3691    0.226
H                     1.1215   -1.6055    0.0128
H                     0.8653   -0.5581    1.4431
H                    -0.9079    1.2829    1.3863
H                    -1.9561    1.4781   -0.0694
H                    -0.2567    2.0357   -0.1168
H                    -2.5447   -0.9318   -0.1387
H                    -1.5896   -1.1965    1.3696
H                    -1.2726   -2.2001   -0.0967
H                    -0.017     0.604    -1.9737

