%nproc=32
%mem=180GB
#P CBS-4M**

Frag_125

0 1
C                    -0.4828    1.0922    0.6357
C                     0.7162    0.6174    0.156
N                     0.6027   -0.7077   -0.0166
C                    -0.6533   -1.011     0.3584
N                    -1.3514    0.0696    0.7657
H                    -0.7115    2.1217    0.8766
H                     1.6069    1.1953   -0.0522
H                     1.3341   -1.3646   -0.3677
H                    -1.0609   -2.013     0.3363

