%nproc=32
%mem=180GB
%chk=CBS-4M.Frag_489.chk
#P CBS-4M

Frag_489

0 1
C                     1.51225   1.45937   0.26922
C                     1.01371   0.20976  -0.46082
O                     1.95389  -0.85519  -0.30906
C                    -0.43264  -0.25015  -0.10492
C                    -1.42712   0.8986   -0.35354
C                    -0.79297  -1.43179  -1.02561
C                    -0.52698  -0.70804   1.36216
H                     0.89407   2.33492   0.05533
H                     2.5351    1.67736  -0.05022
H                     1.52381   1.31523   1.3561
H                     1.0218    0.41947  -1.53855
H                     2.13607  -0.95326   0.6313
H                    -2.45698   0.53954  -0.25364
H                    -1.29644   1.72082   0.35652
H                    -1.3178    1.30568  -1.36559
H                    -0.06033  -2.23605  -0.92807
H                    -1.784    -1.82873  -0.78059
H                    -0.80968  -1.11895  -2.07599
H                    -1.54036  -1.05609   1.58783
H                    -0.29791   0.10049   2.06412
H                     0.15232  -1.54309   1.56424

