%nproc=32
%mem=180GB
%chk=CBS-4M.Frag_1129.chk
#P CBS-4M

Frag_1129

0 1
C                     2.08841   0.02285   0.45495
N                     0.83058  -0.11817   0.74963
O                     0.34564  -0.14839   1.91735
C                    -0.18954  -0.23574  -0.35492
C                    -1.03743   1.03878  -0.35047
N                    -0.8997   -1.47519  -0.09387
H                     2.39085   0.01962  -0.58009
H                     2.78766   0.12938   1.27128
H                     0.36395  -0.32549  -1.2945
H                    -1.82544   0.95521  -1.10489
H                    -0.43368   1.92211  -0.58292
H                    -1.49324   1.16875   0.63355
H                    -1.74163  -1.50755  -0.66006
H                    -1.18643  -1.44606   0.88337

