%nproc=32
%mem=180GB
%chk=CBS-4M.Frag_664.chk
#P CBS-4M

Frag_664

0 1
C                     1.72569  -0.50139  -0.61426
C                     0.61489   0.33489   0.03415
C                     0.49207   0.01861   1.53174
C                    -0.72314   0.17998  -0.73593
N                    -1.76528   1.1634   -0.38953
N                    -1.21993  -1.18551  -0.62982
H                     1.4737   -1.56494  -0.58172
H                     1.86569  -0.22618  -1.66533
H                     2.68156  -0.35434  -0.10044
H                     0.88836   1.3956   -0.05923
H                     0.30221  -1.04695   1.70237
H                     1.42195   0.26537   2.05347
H                    -0.30944   0.59065   2.01234
H                    -0.50005   0.35308  -1.7975
H                    -1.97557   1.10855   0.60482
H                    -1.42073   2.10759  -0.55198
H                    -2.09061  -1.2491   -1.14988
H                    -1.46114  -1.38931   0.33675

