%nproc=32
%mem=180GB
%chk=G4.Frag_765.chk
#P G4

Frag_765

0 1
C                    -1.5184   -0.2943    0.7526
C                    -0.2245    0.2482    0.2067
N                     0.0725    1.6335    0.4418
C                     0.611    -0.5404   -0.5134
N                     1.8923   -0.0723   -0.9501
O                     0.2639   -1.853    -0.8516
H                    -1.324    -1.1888    1.3818
H                    -2.0306    0.4592    1.3865
H                    -2.2003   -0.5604   -0.0824
H                     0.7687    2.1631   -0.1256
H                    -0.5071    2.1908    1.1077
H                     2.4553   -0.6643   -1.6001
H                     2.3625    0.7621   -0.538
H                    -0.6212   -2.2834   -0.616

