%nproc=32
%mem=180MB
%chk=G4.Frag_627.chk
#P G4

Frag_627

0 1
N                     1.8538   -0.292    -0.0476
N                     0.6696   -0.687    -0.691
C                    -0.5207   -0.2532   -0.3936
N                    -0.7581    0.644     0.6992
O                    -1.5965   -0.6887   -1.161
H                     1.9035    0.5353    0.5846
H                     2.7492   -0.7629   -0.3027
H                    -1.7153    1.0343    0.8442
H                    -0.0447    0.8509    1.4298
H                    -2.5407   -0.3808   -0.9618

