%nproc=32
%mem=180GB
%chk=G4.Frag_1069.chk
#P G4

Frag_1069

0 1
O                     1.3739    1.3819    0.0292
C                     0.8394    0.1749   -0.4471
O                     1.7538   -0.8529   -0.1697
C                    -0.4959   -0.1144    0.2521
O                    -1.4004    0.9235   -0.0211
O                    -1.0176   -1.3282   -0.2215
H                     0.9248    2.1152   -0.4674
H                     0.6764    0.2455   -1.5519
H                     1.5558   -1.5962   -0.7977
H                    -0.3085   -0.1804    1.3517
H                    -2.1549    0.8158    0.6147
H                    -1.7468   -1.5848    0.4011

