%nproc=32
%mem=180GB
%chk=G4.Frag_654.chk
#P G4

Frag_654

0 1
C                    -1.6849   -0.5578    0.1732
C                    -0.6432    0.5704    0.1856
O                    -0.0802    0.7551    1.4645
N                     0.3937    0.356    -0.8509
C                     1.4122   -0.6478   -0.501
O                     1.0058    1.5399   -1.1516
H                    -2.5086   -0.313     0.8768
H                    -1.2389   -1.5259    0.4813
H                    -2.1116   -0.667    -0.8464
H                    -1.1985    1.5011   -0.0673
H                     0.1448   -0.1364    1.8382
H                     2.0974   -0.7911   -1.3632
H                     0.9399   -1.6279   -0.2859
H                     2.0177   -0.3262    0.3739
H                     1.4546    1.8706   -0.3272

