%nproc=32
%mem=180GB
%chk=G4.Frag_557.chk
#P G4

Frag_557

0 1
C                    -1.671    -0.0078    0.2205
C                    -0.2246    0.2395   -0.0922
O                     0.1574    1.4156   -0.7375
C                     0.6954   -0.6693    0.249
N                     2.0839   -0.4751   -0.0294
H                    -1.8063   -0.1203    1.3171
H                    -2.0143   -0.9335   -0.2881
H                    -2.2985    0.8391   -0.1272
H                    -0.5214    2.1181   -1.0054
H                     0.3905   -1.5807    0.7502
H                     2.4371    0.3824   -0.5095
H                     2.7717   -1.2078    0.2527

