%nproc=32
%mem=180MB
%chk=G4.Frag_1113.chk
#P G4

Frag_1113

0 1
N                    -0.9337    0.8829    0.8694
C                    -0.2864   -0.1822    0.1005
N                    -1.2196   -0.6995   -0.9016
C                     0.9678    0.3652   -0.6007
O                     1.914     0.8033    0.3371
H                    -0.2921    1.1702    1.644
H                    -1.7796    0.4838    1.3376
H                     0.0109   -1.0095    0.7871
H                    -2.0466   -1.1031   -0.4043
H                    -0.7639   -1.5029   -1.3932
H                     1.4172   -0.4183   -1.2528
H                     0.6855    1.2219   -1.2495
H                     2.3264   -0.0117    0.7263

