%nproc=32
%mem=180GB
%chk=G4.Frag_626.chk
#P G4

Frag_626

0 1
C                    -1.53788  -0.06059  -0.01583
N                    -0.18893  -0.58914  -0.08293
C                     0.89356   0.24616   0.02958
N                     0.75984   1.50888   0.091
O                     2.11429  -0.37158   0.02617
H                    -2.24144  -0.89442  -0.10281
H                    -1.69508   0.58398  -0.85484
H                    -1.7405    0.53539   0.91026
H                    -0.0608   -1.58241   0.36406
H                     1.67404   1.95275   0.05146
H                     2.02302  -1.32911  -0.23812

