%nproc=32
%mem=180MB
%chk=G4.Frag_653.chk
#P G4

Frag_653

0 1
C                    -1.1345   -0.342     0.7271
C                    -0.1017   -0.1326   -0.3856
N                     0.3717    1.2559   -0.4005
C                     1.0529   -1.0805   -0.2057
O                     1.2582   -1.9942   -1.0474
O                     1.892    -0.963     0.8962
H                    -1.4984   -1.3919    0.7185
H                    -2.005     0.3293    0.5683
H                    -0.6911   -0.1222    1.7221
H                    -0.5979   -0.3501   -1.359
H                    -0.4316    1.9011   -0.5817
H                     0.8125    1.5076    0.5146
H                     1.0729    1.3825   -1.1667

