%nproc=32
%mem=180MB
%chk=G4.Frag_560.chk
#P G4

Frag_560

0 1
C                    -1.6017   -0.3188    0.7977
C                    -0.8432    0.1202   -0.2125
N                    -1.4354    0.9124   -1.2481
C                     0.644    -0.1648   -0.2518
C                     1.3775    0.6884    0.7878
N                     0.9037   -1.5866   -0.0153
H                    -1.1752   -0.9014    1.6046
H                    -2.6611   -0.0982    0.8311
H                    -0.8541    1.2893   -2.0292
H                    -2.4564    1.134    -1.2426
H                     1.0402    0.1065   -1.2567
H                     1.1677    1.7659    0.6153
H                     2.4737    0.5298    0.7043
H                     1.0566    0.4169    1.8163
H                     0.4343   -2.1352   -0.7727
H                     1.9295   -1.7583   -0.1285

