%nproc=32
%mem=180GB
%chk=G4.Frag_647.chk
#P G4

Frag_647

0 1
C                    -0.9239   -0.9095    0.9105
C                    -0.4471    0.2583    0.041
N                    -0.6255   -0.0905   -1.3742
O                    -1.2212    1.3922    0.3591
C                     1.0171    0.5169    0.3324
N                     2.028    -0.3453   -0.1942
O                     1.3517    1.4707    1.0859
H                    -0.781    -0.6739    1.9875
H                    -0.359    -1.8354    0.6678
H                    -2.0044   -1.101     0.7362
H                    -1.6494   -0.1678   -1.5762
H                    -0.2615    0.6896   -1.9695
H                    -0.9355    2.1311   -0.2403
H                     1.7774   -1.1679   -0.7861
H                     3.0343   -0.1674    0.0201

