%nproc=32
%mem=180MB
%chk=G4.Frag_455.chk
#P G4

Frag_455

0 1
C                     1.6896    0.6069   -0.1123
C                     0.5946   -0.473    -0.2221
N                     0.964    -1.6465    0.5762
C                    -0.8372    0.023     0.1778
C                    -1.2875    1.2208   -0.6868
N                    -1.8113   -1.0561   -0.0305
O                    -0.8732    0.3783    1.542
H                     1.7813    0.9869    0.926
H                     2.6701    0.1758   -0.4067
H                     1.4859    1.4523   -0.8003
H                     0.56     -0.7856   -1.2904
H                     1.1633   -1.3502    1.5597
H                     1.8451   -2.0564    0.1886
H                    -2.3481    1.468    -0.4659
H                    -1.2022    0.9758   -1.7672
H                    -0.6834    2.1277   -0.4767
H                    -1.7247   -1.4312   -1.0038
H                    -1.6133   -1.8429    0.6297
H                    -0.373     1.2262    1.6628

