%nproc=32
%mem=180GB
%chk=G4.Frag_1144.chk
#P G4

Frag_1144

0 1
C                     1.575    -0.2441   -0.2457
N                     0.4037   -0.0058    0.2268
C                    -0.7791   -0.0624   -0.6008
O                    -1.9093    0.2281    0.1722
H                     2.4386   -0.1916    0.4078
H                     1.7176   -0.4985   -1.2928
H                    -0.8906   -1.0843   -1.0228
H                    -0.6938    0.6619   -1.4433
H                    -1.8622    1.1967    0.3855

