%nproc=32
%mem=180MB
%chk=G4.Frag_1143.chk
#P G4

Frag_1143

0 1
C                    -0.6681   -0.4138   -1.5493
C                    -0.3422    0.0122   -0.0996
C                    -1.1062   -0.9231    0.8664
C                    -0.8517    1.4555    0.1153
C                     1.2049   -0.0755    0.1522
O                     1.6331   -1.406    -0.0252
O                     1.8904    0.7315   -0.7791
O                     1.5203    0.3548    1.4615
H                    -0.3424   -1.4592   -1.7378
H                    -0.1599    0.2485   -2.2824
H                    -1.7618   -0.3559   -1.7395
H                    -2.1965   -0.9034    0.6504
H                    -0.9693   -0.6067    1.922
H                    -0.7581   -1.9731    0.7637
H                    -1.9543    1.5048   -0.0176
H                    -0.6145    1.8116    1.1405
H                    -0.3949    2.1553   -0.6161
H                     2.6143   -1.4166    0.1276
H                     1.8972    1.6624   -0.4347
H                     1.3598   -0.4032    2.0817

