%nproc=32
%mem=180MB
%chk=G4.Frag_1037.chk
#P G4

Frag_1037

0 1
C                    -1.6292   -0.8694    0.0557
C                    -0.3354   -0.0802   -0.1934
C                    -0.4428    1.2846    0.5082
O                    -0.1836    0.1275   -1.5774
N                     0.7937   -0.8686    0.345
N                     2.0379   -0.2321    0.1444
H                    -2.5025   -0.3331   -0.3742
H                    -1.7954   -1.011     1.1456
H                    -1.5664   -1.8714   -0.4206
H                    -0.4435    1.1556    1.6119
H                     0.4038    1.9433    0.222
H                    -1.3793    1.8029    0.2087
H                    -0.0281   -0.7595   -1.9969
H                     2.136     0.1118   -0.838
H                     2.7839   -0.9413    0.3209
H                     2.1509    0.541     0.8381

