%nproc=32
%mem=180GB
%chk=G4.Frag_999.chk
#P G4

Frag_999

0 1
C                    -0.98882  -0.3263    1.24489
C                    -0.29723  -0.22595  -0.18663
C                    -0.8074    0.94337  -0.84748
O                    -0.50349  -1.38328  -1.06938
C                     1.21572  -0.06704   0.00475
N                     1.65567   0.90376   0.54352
O                     1.93535  -1.03183  -0.40265
H                    -2.07622  -0.39072   1.1576
H                    -0.75211   0.51455   1.94643
H                    -0.65966  -1.19962   1.67752
H                    -1.89508   0.85584  -0.93022
H                    -0.58592   1.85039  -0.22815
H                    -0.33306   0.9832   -1.88299
H                    -1.45447  -1.47431  -1.18175
H                     2.67495   0.91254   0.65867
H                     2.87166  -0.86468  -0.22412

