%nproc=32
%mem=180GB
%chk=G4.Frag_487.chk
#P G4

Frag_487

0 1
C                    -0.9275    1.2891   -0.792
C                    -0.4258   -0.1516   -0.5939
C                    -1.5703   -0.9998   -0.0139
N                     0.7523   -0.1872    0.3103
C                     1.9162    0.5306   -0.2379
O                     1.1182   -1.4813    0.5592
H                    -1.8851    1.2954   -1.3555
H                    -0.1998    1.8802   -1.3855
H                    -1.0854    1.7834    0.1905
H                    -0.1591   -0.5702   -1.5913
H                    -2.4691   -0.9374   -0.664
H                    -1.8367   -0.6457    1.0051
H                    -1.2765   -2.069     0.0425
H                     2.1048    0.2468   -1.2967
H                     1.7593    1.6265   -0.1651
H                     2.8234    0.2946    0.3594
H                     1.3612   -1.9044   -0.3088

