%nproc=32
%mem=180GB
%chk=G4.Frag_1026.chk
#P G4

Frag_1026

0 1
C                    -1.0017   -1.3286    0.5482
C                    -0.5951   -0.2245   -0.4448
C                    -1.6492    0.8961   -0.4298
C                     0.8463    0.3403   -0.2156
N                     0.9205    1.0647    1.0628
N                     1.8541   -0.7332   -0.2426
O                     1.1242    1.2387   -1.2638
H                    -1.0031   -0.9545    1.5926
H                    -0.3261   -2.2044    0.4685
H                    -2.0256   -1.6898    0.3124
H                    -0.6215   -0.6788   -1.4608
H                    -1.7056    1.3724    0.5722
H                    -2.65      0.4843   -0.6815
H                    -1.4062    1.6736   -1.1844
H                     0.8265    0.3929    1.8575
H                     1.8718    1.4897    1.1563
H                     1.7017   -1.3342   -1.0851
H                     1.7708   -1.3371    0.6063
H                     2.0682    1.532    -1.1684

