%nproc=32
%mem=180MB
%chk=G4.Frag_704.chk
#P G4

Frag_704

0 1
C                     1.357    -0.2361    0.5046
N                     0.202     0.6182    0.2241
C                    -0.9688   -0.2018   -0.1036
O                    -2.0848    0.6225   -0.2988
H                     1.6012   -0.8756   -0.3726
H                     2.238     0.4005    0.732
H                     1.1583   -0.876     1.3913
H                     0.4366    1.1971   -0.6162
H                    -0.7809   -0.8151   -1.0166
H                    -1.1948   -0.8913    0.7386
H                    -1.9639    1.0575   -1.1829

