%nproc=32
%mem=180MB
%chk=G4.Frag_1068.chk
#P G4

Frag_1068

0 1
N                    -0.8955   -0.6063   -1.0919
N                    -0.1934   -0.5066    0.1291
N                    -1.0826   -0.0381    1.1254
C                     0.9337    0.4274   -0.0398
O                     1.8721   -0.1087   -0.9319
H                    -1.5802   -1.3914   -1.0002
H                    -1.4396    0.2725   -1.2655
H                    -0.6182   -0.1613    2.0543
H                    -1.2765    0.9831    0.9911
H                     1.4237    0.6172    0.9425
H                     0.5809    1.4051   -0.4372
H                     2.2755   -0.893    -0.476

