%nproc=32
%mem=180GB
%chk=G4.Frag_717.chk
#P G4

Frag_717

0 1
C                     1.7401   -0.6504    0.11
C                     0.6135   -0.3886   -0.23
C                    -0.7568   -0.0703   -0.644
O                    -1.2863    0.931     0.1801
H                     2.7292   -0.8802    0.4084
H                    -0.7621    0.2506   -1.7096
H                    -1.3807   -0.9829   -0.5494
H                    -0.897     1.7908   -0.1292

