%nproc=32
%mem=180MB
%chk=G4.Frag_634.chk
#P G4

Frag_634

0 1
C                     1.7281   -0.7046    0.0912
C                     0.8997    0.5535   -0.1838
C                    -0.601     0.4043    0.1646
C                    -1.268    -0.6703   -0.7094
O                    -0.7332    0.0564    1.5233
O                    -1.2483    1.6305   -0.0812
H                     1.4396   -1.525    -0.5978
H                     2.8026   -0.4802   -0.0763
H                     1.601    -1.039     1.1422
H                     1.3282    1.3842    0.4187
H                     1.0107    0.8315   -1.2549
H                    -1.0729   -0.4752   -1.7857
H                    -0.8951   -1.6826   -0.4476
H                    -2.3672   -0.6616   -0.548
H                    -1.7       0.0988    1.7474
H                    -0.9241    2.2794    0.5974

