%nproc=32
%mem=180GB
%chk=G4.Frag_915.chk
#P G4

Frag_915

0 1
C                    -1.1513   -0.4052   -0.1791
C                     0.2226    0.2617   -0.0529
O                     0.2587    1.0803    1.0928
O                     0.4399    1.0497   -1.1947
C                     1.2718   -0.7746    0.0291
N                     2.0941   -1.5864    0.0936
H                    -1.9449    0.3708   -0.226
H                    -1.3521   -1.0631    0.6942
H                    -1.202    -1.0172   -1.1059
H                     0.0973    0.5045    1.8869
H                     1.266     1.5795   -1.0381

