%nproc=32
%mem=180GB
%chk=G4.Frag_763.chk
#P G4

Frag_763

0 1
N                     1.30857  -0.19156  -0.73269
N                     0.34502  -0.92392  -0.05052
C                    -0.72969  -0.34031   0.27563
O                    -0.93709   0.99895   0.04166
H                     2.14348  -0.67903  -0.56061
H                     1.19534   0.79033  -0.51265
H                    -1.51957  -0.90257   0.75013
H                    -1.80606   1.24811   0.37675

