%nproc=32
%mem=180MB
%chk=G4.Frag_761.chk
#P G4

Frag_761

0 1
C                     1.4212   -0.3266    0.2209
C                     0.3927    0.5957   -0.4236
C                    -0.9865    0.0169   -0.3046
N                    -1.6959    0.205     0.7635
O                    -1.4948   -0.7554   -1.3452
H                     1.4103   -1.3216   -0.2737
H                     2.4348    0.1135    0.112
H                     1.2027   -0.4521    1.303
H                     0.4315    1.5943    0.0633
H                     0.644     0.7298   -1.4976
H                    -1.3414    0.7681    1.5689
H                    -2.4186   -1.1677   -1.288

