%nproc=32
%mem=180GB
%chk=G4.Frag_992.chk
#P G4

Frag_992

0 1
C                     0.2677    0.3157    1.3346
C                    -0.1987   -0.081    -0.0871
C                    -0.6402   -1.5588   -0.0749
C                    -1.4191    0.7802   -0.472
N                     0.8616    0.0976   -1.1151
O                     1.9493   -0.7064   -0.9038
O                     1.2469    1.403    -1.2618
H                    -0.5578    0.1646    2.0636
H                     1.1211   -0.3077    1.6722
H                     0.5573    1.3856    1.3847
H                     0.1936   -2.2178    0.2491
H                    -1.4901   -1.7134    0.6249
H                    -0.9594   -1.8756   -1.0913
H                    -2.2634    0.6088    0.2307
H                    -1.7605    0.53     -1.4997
H                    -1.1648    1.8614   -0.4435
H                     2.4625   -0.347    -0.135
H                     1.7941    1.6606   -0.4758

