%nproc=32
%mem=180MB
%chk=G4.Frag_637.chk
#P G4

Frag_637

0 1
C                     1.5705    1.0625   -0.752
N                     0.8618    0.3371    0.3215
C                     1.5839   -0.9135    0.6325
C                    -0.6079    0.1798    0.0697
C                    -1.2921   -0.5315    1.2641
C                    -0.9056   -0.6217   -1.2217
N                    -1.207     1.5166   -0.0693
H                     1.7057    0.4246   -1.6523
H                     2.5743    1.3748   -0.3923
H                     1.0348    1.9908   -1.0391
H                     2.6572   -0.6972    0.8251
H                     1.5269   -1.6417   -0.2025
H                     1.2012   -1.3727    1.5655
H                    -2.3982   -0.4626    1.1824
H                    -1.0372   -1.6119    1.2951
H                    -0.9841   -0.0592    2.2215
H                    -0.4896   -1.6481   -1.175
H                    -0.5031   -0.1054   -2.1172
H                    -2.0035   -0.7182   -1.3658
H                    -1.0455    2.0587    0.8113
H                    -2.2425    1.4389   -0.2016

